n_res = 4;
rcap = [12, 12, 37, 60];
rtype = [1, 1, 2, 2];
n_tasks = 10;
modes = [ {1, 2, 3}, {4, 5, 6}, {7, 8, 9}, {10, 11, 12}, {13, 14, 15}, {16, 17, 18}, {19, 20, 21}, {22, 23, 24}, {25, 26, 27}, {28, 29, 30} ];
succ = [ {4, 5, 10}, {6}, {6, 10}, {8, 9}, {7}, {7, 8}, {9}, {}, {}, {} ];
n_opt = 30;
dur = [2, 5, 6, 1, 8, 8, 1, 8, 8, 1, 2, 2, 1, 4, 9, 1, 1, 5, 2, 2, 3, 1, 5, 9, 2, 9, 10, 3, 6, 7];
rreq = [|  5,  5,  5,  6,  5,  4,  4,  3,  1,  7,  6,  5,  7,  7,  6,  9,  9,  9,  9,  9,  9,  9,  9,  9,  7,  7,  3,  5,  4,  4
        |  9,  8,  6,  5,  4,  5,  9,  4,  4,  3,  3,  3,  9,  7,  2,  5,  4,  3,  5,  6,  4,  9,  8,  8,  2,  2,  1, 10, 10,  9
        |  4,  2,  1,  6,  5,  4,  9,  6,  2,  7,  5,  6,  4,  2,  1,  3,  3,  3,  9,  7,  4, 10,  6,  4,  4,  4,  3,  8,  5,  3
        |  7,  7,  6,  8,  5,  6,  5,  1,  3,  8,  8,  5, 10, 10, 10,  6,  7,  6,  8,  8,  8,  6,  6,  5,  9,  6,  3, 10,  7,  7 |];
